Maximize
  - 3.6174935451338 edge_0_1_0_0 - 2.247499147452 edge_0_3_0_0
   - 0.58526140402964 edge_0_4_0_0 + 0.04095590449249 edge_0_8_0_0
   + 0.69530247919566 edge_0_15_0_0 - 0.3186218422737299 edge_1_2_0_0
   - 0.1131746529578959 edge_1_3_0_0 + 0.3750205926899832 edge_1_4_0_0
   + 0.0698715286211429 edge_1_5_0_0 - 0.6852702985533017 edge_1_8_0_0
   - 0.6621473858540783 edge_1_10_0_0 - 1.039436427966393 edge_2_1_0_0
   - 0.7409192651897465 edge_2_5_0_0 + 0.489865162019925 edge_3_1_0_0
   + 3.266766187408883 edge_3_2_0_0 + 1.383182724259515 edge_3_4_0_0
   + 1.336615309902526 edge_3_5_0_0 + 0.2937651114609375 edge_3_6_0_0
   - 0.0274240393155557 edge_3_7_0_0 + 1.364749697875607 edge_3_8_0_0
   + 0.8310237977665111 edge_3_10_0_0 + 0.407405615800792 edge_3_12_0_0
   - 0.3804419202477815 edge_3_13_0_0 - 0.4841570220851474 edge_3_14_0_0
   + 1.096518121373373 edge_3_15_0_0 + 0.0656654181319902 edge_3_16_0_0
   + 2.68795896799358 edge_4_1_0_0 + 1.403642099430386 edge_4_2_0_0
   + 2.81640981011374 edge_4_3_0_0 + 2.987514355289905 edge_4_5_0_0
   + 2.345880817805734 edge_4_6_0_0 + 1.453979125533912 edge_4_7_0_0
   + 2.57613833267056 edge_4_8_0_0 - 0.3491101759807747 edge_4_9_0_0
   + 1.359516144801236 edge_4_10_0_0 + 0.8375655016319188 edge_4_12_0_0
   + 0.2425034616687425 edge_4_13_0_0 + 0.0802598766602657 edge_4_14_0_0
   + 1.696852517350658 edge_4_15_0_0 + 2.670321313024633 edge_4_16_0_0
   - 0.5313704146523041 edge_5_3_0_0 - 1.373959897295871 edge_6_1_0_0
   - 0.9336271377986461 edge_6_3_0_0 - 0.3974577851245963 edge_6_4_0_0
   - 0.2968853901036295 edge_6_5_0_0 + 0.7215970763758396 edge_6_7_0_0
   - 0.7756742887442913 edge_6_9_0_0 + 0.3558297248179208 edge_6_10_0_0
   + 0.1861033578011106 edge_6_12_0_0 - 0.2050235286185368 edge_6_13_0_0
   - 0.2405192047029609 edge_6_14_0_0 + 0.1887170961842566 edge_6_15_0_0
   + 0.2213323248433686 edge_6_16_0_0 - 0.5254656660350961 edge_7_1_0_0
   - 0.194913496050614 edge_7_2_0_0 - 0.7727568090352719 edge_7_3_0_0
   - 0.4864962027694028 edge_7_4_0_0 - 0.1496133612534244 edge_7_5_0_0
   + 0.544747909870971 edge_7_6_0_0 + 1.009218609030061 edge_7_8_0_0
   + 0.326936551707012 edge_7_9_0_0 + 0.2828017824698719 edge_7_10_0_0
   + 0.1575162834387622 edge_7_12_0_0 - 0.0310585023459958 edge_7_13_0_0
   - 0.2377540459397444 edge_7_14_0_0 + 0.1365981711736291 edge_7_15_0_0
   + 0.3915628767303656 edge_7_16_0_0 + 1.078902882823188 edge_8_1_0_0
   + 0.393858079064383 edge_8_2_0_0 + 0.4060189717427125 edge_8_3_0_0
   + 1.351115127039907 edge_8_4_0_0 + 0.6991241803326028 edge_8_5_0_0
   + 3.990838461500935 edge_8_6_0_0 + 2.779568077017019 edge_8_7_0_0
   + 1.171985914453029 edge_8_9_0_0 + 2.284715212000095 edge_8_10_0_0
   + 0.9331447571850989 edge_8_12_0_0 + 0.438860818944811 edge_8_13_0_0
   + 0.9997668262762806 edge_8_14_0_0 + 1.374670137085497 edge_8_15_0_0
   + 3.139197537249336 edge_8_16_0_0 + 0.1914612898406245 edge_9_10_0_0
   + 0.0327767887003258 edge_9_13_0_0 - 0.4089788951254018 edge_9_14_0_0
   - 0.6078653812972286 edge_9_15_0_0 - 1.181631345499827 edge_10_1_0_0
   + 1.329585637598791 edge_10_2_0_0 + 0.2401724965130868 edge_10_3_0_0
   - 0.8231057782438778 edge_10_4_0_0 - 0.2187551698060095 edge_10_5_0_0
   + 0.2911484655481338 edge_10_6_0_0 + 1.601937631539273 edge_10_7_0_0
   + 1.415671517963051 edge_10_8_0_0 + 2.174877624879014 edge_10_9_0_0
   + 0.4824109680390074 edge_10_12_0_0 + 0.5048694717621829 edge_10_13_0_0
   + 0.6952103608397857 edge_10_14_0_0 + 1.127961055699058 edge_10_15_0_0
   + 0.9195437226075543 edge_10_16_0_0 - 0.2935703924082083 edge_12_13_0_0
   - 0.4055448234170073 edge_12_14_0_0 - 0.2304377198790268 edge_12_15_0_0
   - 0.0891183593517592 edge_13_6_0_0 + 0.026158169601584 edge_13_7_0_0
   - 0.0617475035682438 edge_13_8_0_0 + 0.1591285589039 edge_13_9_0_0
   + 0.4070802635350175 edge_13_10_0_0 - 0.0218830270329543 edge_13_12_0_0
   + 0.7982253676406258 edge_13_14_0_0 + 1.113656041528088 edge_13_15_0_0
   + 0.698822787509684 edge_13_16_0_0 - 1.048891991812281 edge_14_1_0_0
   - 0.8031246761754687 edge_14_4_0_0 - 0.7501648667718032 edge_14_7_0_0
   - 0.3472987302158607 edge_14_8_0_0 + 0.20711687946322 edge_14_9_0_0
   - 0.1485076761711798 edge_14_10_0_0 - 0.0549136584553742 edge_14_12_0_0
   + 0.5380582622009247 edge_14_13_0_0 + 0.5545469146426559 edge_14_15_0_0
   + 0.3928675795871541 edge_14_16_0_0 - 0.3982125549684766 edge_15_1_0_0
   - 0.2116146014896248 edge_15_2_0_0 - 1.368538117054532 edge_15_3_0_0
   + 0.2321788218938672 edge_15_4_0_0 - 0.0786747891594952 edge_15_5_0_0
   + 2.069864370428766 edge_15_6_0_0 + 0.8606658257793728 edge_15_7_0_0
   + 0.0792185703828805 edge_15_8_0_0 - 0.2818852912423876 edge_15_9_0_0
   - 0.0542096777875492 edge_15_10_0_0 + 0.6111804100562331 edge_15_12_0_0
   + 3.506884161854013 edge_15_13_0_0 + 3.511096083532331 edge_15_14_0_0
   + 3.394837319862184 edge_15_16_0_0
Subject To
 one_parent_1: edge_0_1_0_0 + edge_2_1_0_0 + edge_3_1_0_0 + edge_4_1_0_0
   + edge_6_1_0_0 + edge_7_1_0_0 + edge_8_1_0_0 + edge_10_1_0_0
   + edge_14_1_0_0 + edge_15_1_0_0 = 1
 consume_one_flow_unit_1: flow_0_1_0_0 - flow_1_2_0_0 - flow_1_3_0_0
   - flow_1_4_0_0 - flow_1_5_0_0 - flow_1_8_0_0 - flow_1_10_0_0
   + flow_2_1_0_0 + flow_3_1_0_0 + flow_4_1_0_0 + flow_6_1_0_0
   + flow_7_1_0_0 + flow_8_1_0_0 + flow_10_1_0_0 + flow_14_1_0_0
   + flow_15_1_0_0 = 1
 one_parent_2: edge_1_2_0_0 + edge_3_2_0_0 + edge_4_2_0_0 + edge_7_2_0_0
   + edge_8_2_0_0 + edge_10_2_0_0 + edge_15_2_0_0 = 1
 consume_one_flow_unit_2: flow_1_2_0_0 - flow_2_1_0_0 - flow_2_5_0_0
   + flow_3_2_0_0 + flow_4_2_0_0 + flow_7_2_0_0 + flow_8_2_0_0
   + flow_10_2_0_0 + flow_15_2_0_0 = 1
 one_parent_3: edge_0_3_0_0 + edge_1_3_0_0 + edge_4_3_0_0 + edge_5_3_0_0
   + edge_6_3_0_0 + edge_7_3_0_0 + edge_8_3_0_0 + edge_10_3_0_0
   + edge_15_3_0_0 = 1
 consume_one_flow_unit_3: flow_0_3_0_0 + flow_1_3_0_0 - flow_3_1_0_0
   - flow_3_2_0_0 - flow_3_4_0_0 - flow_3_5_0_0 - flow_3_6_0_0
   - flow_3_7_0_0 - flow_3_8_0_0 - flow_3_10_0_0 - flow_3_12_0_0
   - flow_3_13_0_0 - flow_3_14_0_0 - flow_3_15_0_0 - flow_3_16_0_0
   + flow_4_3_0_0 + flow_5_3_0_0 + flow_6_3_0_0 + flow_7_3_0_0
   + flow_8_3_0_0 + flow_10_3_0_0 + flow_15_3_0_0 = 1
 one_parent_4: edge_0_4_0_0 + edge_1_4_0_0 + edge_3_4_0_0 + edge_6_4_0_0
   + edge_7_4_0_0 + edge_8_4_0_0 + edge_10_4_0_0 + edge_14_4_0_0
   + edge_15_4_0_0 = 1
 consume_one_flow_unit_4: flow_0_4_0_0 + flow_1_4_0_0 + flow_3_4_0_0
   - flow_4_1_0_0 - flow_4_2_0_0 - flow_4_3_0_0 - flow_4_5_0_0
   - flow_4_6_0_0 - flow_4_7_0_0 - flow_4_8_0_0 - flow_4_9_0_0
   - flow_4_10_0_0 - flow_4_12_0_0 - flow_4_13_0_0 - flow_4_14_0_0
   - flow_4_15_0_0 - flow_4_16_0_0 + flow_6_4_0_0 + flow_7_4_0_0
   + flow_8_4_0_0 + flow_10_4_0_0 + flow_14_4_0_0 + flow_15_4_0_0 = 1
 one_parent_5: edge_1_5_0_0 + edge_2_5_0_0 + edge_3_5_0_0 + edge_4_5_0_0
   + edge_6_5_0_0 + edge_7_5_0_0 + edge_8_5_0_0 + edge_10_5_0_0
   + edge_15_5_0_0 = 1
 consume_one_flow_unit_5: flow_1_5_0_0 + flow_2_5_0_0 + flow_3_5_0_0
   + flow_4_5_0_0 - flow_5_3_0_0 + flow_6_5_0_0 + flow_7_5_0_0
   + flow_8_5_0_0 + flow_10_5_0_0 + flow_15_5_0_0 = 1
 one_parent_6: edge_3_6_0_0 + edge_4_6_0_0 + edge_7_6_0_0 + edge_8_6_0_0
   + edge_10_6_0_0 + edge_13_6_0_0 + edge_15_6_0_0 = 1
 consume_one_flow_unit_6: flow_3_6_0_0 + flow_4_6_0_0 - flow_6_1_0_0
   - flow_6_3_0_0 - flow_6_4_0_0 - flow_6_5_0_0 - flow_6_7_0_0
   - flow_6_9_0_0 - flow_6_10_0_0 - flow_6_12_0_0 - flow_6_13_0_0
   - flow_6_14_0_0 - flow_6_15_0_0 - flow_6_16_0_0 + flow_7_6_0_0
   + flow_8_6_0_0 + flow_10_6_0_0 + flow_13_6_0_0 + flow_15_6_0_0 = 1
 one_parent_7: edge_3_7_0_0 + edge_4_7_0_0 + edge_6_7_0_0 + edge_8_7_0_0
   + edge_10_7_0_0 + edge_13_7_0_0 + edge_14_7_0_0 + edge_15_7_0_0 = 1
 consume_one_flow_unit_7: flow_3_7_0_0 + flow_4_7_0_0 + flow_6_7_0_0
   - flow_7_1_0_0 - flow_7_2_0_0 - flow_7_3_0_0 - flow_7_4_0_0
   - flow_7_5_0_0 - flow_7_6_0_0 - flow_7_8_0_0 - flow_7_9_0_0
   - flow_7_10_0_0 - flow_7_12_0_0 - flow_7_13_0_0 - flow_7_14_0_0
   - flow_7_15_0_0 - flow_7_16_0_0 + flow_8_7_0_0 + flow_10_7_0_0
   + flow_13_7_0_0 + flow_14_7_0_0 + flow_15_7_0_0 = 1
 one_parent_8: edge_0_8_0_0 + edge_1_8_0_0 + edge_3_8_0_0 + edge_4_8_0_0
   + edge_7_8_0_0 + edge_10_8_0_0 + edge_13_8_0_0 + edge_14_8_0_0
   + edge_15_8_0_0 = 1
 consume_one_flow_unit_8: flow_0_8_0_0 + flow_1_8_0_0 + flow_3_8_0_0
   + flow_4_8_0_0 + flow_7_8_0_0 - flow_8_1_0_0 - flow_8_2_0_0
   - flow_8_3_0_0 - flow_8_4_0_0 - flow_8_5_0_0 - flow_8_6_0_0
   - flow_8_7_0_0 - flow_8_9_0_0 - flow_8_10_0_0 - flow_8_12_0_0
   - flow_8_13_0_0 - flow_8_14_0_0 - flow_8_15_0_0 - flow_8_16_0_0
   + flow_10_8_0_0 + flow_13_8_0_0 + flow_14_8_0_0 + flow_15_8_0_0 = 1
 one_parent_9: edge_4_9_0_0 + edge_6_9_0_0 + edge_7_9_0_0 + edge_8_9_0_0
   + edge_10_9_0_0 + edge_13_9_0_0 + edge_14_9_0_0 + edge_15_9_0_0 = 1
 consume_one_flow_unit_9: flow_4_9_0_0 + flow_6_9_0_0 + flow_7_9_0_0
   + flow_8_9_0_0 - flow_9_10_0_0 - flow_9_13_0_0 - flow_9_14_0_0
   - flow_9_15_0_0 + flow_10_9_0_0 + flow_13_9_0_0 + flow_14_9_0_0
   + flow_15_9_0_0 = 1
 one_parent_10: edge_1_10_0_0 + edge_3_10_0_0 + edge_4_10_0_0
   + edge_6_10_0_0 + edge_7_10_0_0 + edge_8_10_0_0 + edge_9_10_0_0
   + edge_13_10_0_0 + edge_14_10_0_0 + edge_15_10_0_0 = 1
 consume_one_flow_unit_10: flow_1_10_0_0 + flow_3_10_0_0 + flow_4_10_0_0
   + flow_6_10_0_0 + flow_7_10_0_0 + flow_8_10_0_0 + flow_9_10_0_0
   - flow_10_1_0_0 - flow_10_2_0_0 - flow_10_3_0_0 - flow_10_4_0_0
   - flow_10_5_0_0 - flow_10_6_0_0 - flow_10_7_0_0 - flow_10_8_0_0
   - flow_10_9_0_0 - flow_10_12_0_0 - flow_10_13_0_0 - flow_10_14_0_0
   - flow_10_15_0_0 - flow_10_16_0_0 + flow_13_10_0_0 + flow_14_10_0_0
   + flow_15_10_0_0 = 1
 one_parent_11: = 1
 consume_one_flow_unit_11: = 1
 one_parent_12: edge_3_12_0_0 + edge_4_12_0_0 + edge_6_12_0_0
   + edge_7_12_0_0 + edge_8_12_0_0 + edge_10_12_0_0 + edge_13_12_0_0
   + edge_14_12_0_0 + edge_15_12_0_0 = 1
 consume_one_flow_unit_12: flow_3_12_0_0 + flow_4_12_0_0 + flow_6_12_0_0
   + flow_7_12_0_0 + flow_8_12_0_0 + flow_10_12_0_0 - flow_12_13_0_0
   - flow_12_14_0_0 - flow_12_15_0_0 + flow_13_12_0_0 + flow_14_12_0_0
   + flow_15_12_0_0 = 1
 one_parent_13: edge_3_13_0_0 + edge_4_13_0_0 + edge_6_13_0_0
   + edge_7_13_0_0 + edge_8_13_0_0 + edge_9_13_0_0 + edge_10_13_0_0
   + edge_12_13_0_0 + edge_14_13_0_0 + edge_15_13_0_0 = 1
 consume_one_flow_unit_13: flow_3_13_0_0 + flow_4_13_0_0 + flow_6_13_0_0
   + flow_7_13_0_0 + flow_8_13_0_0 + flow_9_13_0_0 + flow_10_13_0_0
   + flow_12_13_0_0 - flow_13_6_0_0 - flow_13_7_0_0 - flow_13_8_0_0
   - flow_13_9_0_0 - flow_13_10_0_0 - flow_13_12_0_0 - flow_13_14_0_0
   - flow_13_15_0_0 - flow_13_16_0_0 + flow_14_13_0_0 + flow_15_13_0_0 = 1
 one_parent_14: edge_3_14_0_0 + edge_4_14_0_0 + edge_6_14_0_0
   + edge_7_14_0_0 + edge_8_14_0_0 + edge_9_14_0_0 + edge_10_14_0_0
   + edge_12_14_0_0 + edge_13_14_0_0 + edge_15_14_0_0 = 1
 consume_one_flow_unit_14: flow_3_14_0_0 + flow_4_14_0_0 + flow_6_14_0_0
   + flow_7_14_0_0 + flow_8_14_0_0 + flow_9_14_0_0 + flow_10_14_0_0
   + flow_12_14_0_0 + flow_13_14_0_0 - flow_14_1_0_0 - flow_14_4_0_0
   - flow_14_7_0_0 - flow_14_8_0_0 - flow_14_9_0_0 - flow_14_10_0_0
   - flow_14_12_0_0 - flow_14_13_0_0 - flow_14_15_0_0 - flow_14_16_0_0
   + flow_15_14_0_0 = 1
 one_parent_15: edge_0_15_0_0 + edge_3_15_0_0 + edge_4_15_0_0
   + edge_6_15_0_0 + edge_7_15_0_0 + edge_8_15_0_0 + edge_9_15_0_0
   + edge_10_15_0_0 + edge_12_15_0_0 + edge_13_15_0_0 + edge_14_15_0_0 = 1
 consume_one_flow_unit_15: flow_0_15_0_0 + flow_3_15_0_0 + flow_4_15_0_0
   + flow_6_15_0_0 + flow_7_15_0_0 + flow_8_15_0_0 + flow_9_15_0_0
   + flow_10_15_0_0 + flow_12_15_0_0 + flow_13_15_0_0 + flow_14_15_0_0
   - flow_15_1_0_0 - flow_15_2_0_0 - flow_15_3_0_0 - flow_15_4_0_0
   - flow_15_5_0_0 - flow_15_6_0_0 - flow_15_7_0_0 - flow_15_8_0_0
   - flow_15_9_0_0 - flow_15_10_0_0 - flow_15_12_0_0 - flow_15_13_0_0
   - flow_15_14_0_0 - flow_15_16_0_0 = 1
 one_parent_16: edge_3_16_0_0 + edge_4_16_0_0 + edge_6_16_0_0
   + edge_7_16_0_0 + edge_8_16_0_0 + edge_10_16_0_0 + edge_13_16_0_0
   + edge_14_16_0_0 + edge_15_16_0_0 = 1
 consume_one_flow_unit_16: flow_3_16_0_0 + flow_4_16_0_0 + flow_6_16_0_0
   + flow_7_16_0_0 + flow_8_16_0_0 + flow_10_16_0_0 + flow_13_16_0_0
   + flow_14_16_0_0 + flow_15_16_0_0 = 1
 root_flow: flow_0_1_0_0 + flow_0_3_0_0 + flow_0_4_0_0 + flow_0_8_0_0
   + flow_0_15_0_0 = 16
 inactive_no_flow_0_1_0_0: flow_0_1_0_0 - 1000 edge_0_1_0_0 <= 0
 inactive_no_flow_0_3_0_0: flow_0_3_0_0 - 1000 edge_0_3_0_0 <= 0
 inactive_no_flow_0_4_0_0: flow_0_4_0_0 - 1000 edge_0_4_0_0 <= 0
 inactive_no_flow_0_8_0_0: flow_0_8_0_0 - 1000 edge_0_8_0_0 <= 0
 inactive_no_flow_0_15_0_0: flow_0_15_0_0 - 1000 edge_0_15_0_0 <= 0
 inactive_no_flow_1_2_0_0: flow_1_2_0_0 - 1000 edge_1_2_0_0 <= 0
 inactive_no_flow_1_3_0_0: flow_1_3_0_0 - 1000 edge_1_3_0_0 <= 0
 inactive_no_flow_1_4_0_0: flow_1_4_0_0 - 1000 edge_1_4_0_0 <= 0
 inactive_no_flow_1_5_0_0: flow_1_5_0_0 - 1000 edge_1_5_0_0 <= 0
 inactive_no_flow_1_8_0_0: flow_1_8_0_0 - 1000 edge_1_8_0_0 <= 0
 inactive_no_flow_1_10_0_0: flow_1_10_0_0 - 1000 edge_1_10_0_0 <= 0
 inactive_no_flow_2_1_0_0: flow_2_1_0_0 - 1000 edge_2_1_0_0 <= 0
 inactive_no_flow_2_5_0_0: flow_2_5_0_0 - 1000 edge_2_5_0_0 <= 0
 inactive_no_flow_3_1_0_0: flow_3_1_0_0 - 1000 edge_3_1_0_0 <= 0
 inactive_no_flow_3_2_0_0: flow_3_2_0_0 - 1000 edge_3_2_0_0 <= 0
 inactive_no_flow_3_4_0_0: flow_3_4_0_0 - 1000 edge_3_4_0_0 <= 0
 inactive_no_flow_3_5_0_0: flow_3_5_0_0 - 1000 edge_3_5_0_0 <= 0
 inactive_no_flow_3_6_0_0: flow_3_6_0_0 - 1000 edge_3_6_0_0 <= 0
 inactive_no_flow_3_7_0_0: flow_3_7_0_0 - 1000 edge_3_7_0_0 <= 0
 inactive_no_flow_3_8_0_0: flow_3_8_0_0 - 1000 edge_3_8_0_0 <= 0
 inactive_no_flow_3_10_0_0: flow_3_10_0_0 - 1000 edge_3_10_0_0 <= 0
 inactive_no_flow_3_12_0_0: flow_3_12_0_0 - 1000 edge_3_12_0_0 <= 0
 inactive_no_flow_3_13_0_0: flow_3_13_0_0 - 1000 edge_3_13_0_0 <= 0
 inactive_no_flow_3_14_0_0: flow_3_14_0_0 - 1000 edge_3_14_0_0 <= 0
 inactive_no_flow_3_15_0_0: flow_3_15_0_0 - 1000 edge_3_15_0_0 <= 0
 inactive_no_flow_3_16_0_0: flow_3_16_0_0 - 1000 edge_3_16_0_0 <= 0
 inactive_no_flow_4_1_0_0: flow_4_1_0_0 - 1000 edge_4_1_0_0 <= 0
 inactive_no_flow_4_2_0_0: flow_4_2_0_0 - 1000 edge_4_2_0_0 <= 0
 inactive_no_flow_4_3_0_0: flow_4_3_0_0 - 1000 edge_4_3_0_0 <= 0
 inactive_no_flow_4_5_0_0: flow_4_5_0_0 - 1000 edge_4_5_0_0 <= 0
 inactive_no_flow_4_6_0_0: flow_4_6_0_0 - 1000 edge_4_6_0_0 <= 0
 inactive_no_flow_4_7_0_0: flow_4_7_0_0 - 1000 edge_4_7_0_0 <= 0
 inactive_no_flow_4_8_0_0: flow_4_8_0_0 - 1000 edge_4_8_0_0 <= 0
 inactive_no_flow_4_9_0_0: flow_4_9_0_0 - 1000 edge_4_9_0_0 <= 0
 inactive_no_flow_4_10_0_0: flow_4_10_0_0 - 1000 edge_4_10_0_0 <= 0
 inactive_no_flow_4_12_0_0: flow_4_12_0_0 - 1000 edge_4_12_0_0 <= 0
 inactive_no_flow_4_13_0_0: flow_4_13_0_0 - 1000 edge_4_13_0_0 <= 0
 inactive_no_flow_4_14_0_0: flow_4_14_0_0 - 1000 edge_4_14_0_0 <= 0
 inactive_no_flow_4_15_0_0: flow_4_15_0_0 - 1000 edge_4_15_0_0 <= 0
 inactive_no_flow_4_16_0_0: flow_4_16_0_0 - 1000 edge_4_16_0_0 <= 0
 inactive_no_flow_5_3_0_0: flow_5_3_0_0 - 1000 edge_5_3_0_0 <= 0
 inactive_no_flow_6_1_0_0: flow_6_1_0_0 - 1000 edge_6_1_0_0 <= 0
 inactive_no_flow_6_3_0_0: flow_6_3_0_0 - 1000 edge_6_3_0_0 <= 0
 inactive_no_flow_6_4_0_0: flow_6_4_0_0 - 1000 edge_6_4_0_0 <= 0
 inactive_no_flow_6_5_0_0: flow_6_5_0_0 - 1000 edge_6_5_0_0 <= 0
 inactive_no_flow_6_7_0_0: flow_6_7_0_0 - 1000 edge_6_7_0_0 <= 0
 inactive_no_flow_6_9_0_0: flow_6_9_0_0 - 1000 edge_6_9_0_0 <= 0
 inactive_no_flow_6_10_0_0: flow_6_10_0_0 - 1000 edge_6_10_0_0 <= 0
 inactive_no_flow_6_12_0_0: flow_6_12_0_0 - 1000 edge_6_12_0_0 <= 0
 inactive_no_flow_6_13_0_0: flow_6_13_0_0 - 1000 edge_6_13_0_0 <= 0
 inactive_no_flow_6_14_0_0: flow_6_14_0_0 - 1000 edge_6_14_0_0 <= 0
 inactive_no_flow_6_15_0_0: flow_6_15_0_0 - 1000 edge_6_15_0_0 <= 0
 inactive_no_flow_6_16_0_0: flow_6_16_0_0 - 1000 edge_6_16_0_0 <= 0
 inactive_no_flow_7_1_0_0: flow_7_1_0_0 - 1000 edge_7_1_0_0 <= 0
 inactive_no_flow_7_2_0_0: flow_7_2_0_0 - 1000 edge_7_2_0_0 <= 0
 inactive_no_flow_7_3_0_0: flow_7_3_0_0 - 1000 edge_7_3_0_0 <= 0
 inactive_no_flow_7_4_0_0: flow_7_4_0_0 - 1000 edge_7_4_0_0 <= 0
 inactive_no_flow_7_5_0_0: flow_7_5_0_0 - 1000 edge_7_5_0_0 <= 0
 inactive_no_flow_7_6_0_0: flow_7_6_0_0 - 1000 edge_7_6_0_0 <= 0
 inactive_no_flow_7_8_0_0: flow_7_8_0_0 - 1000 edge_7_8_0_0 <= 0
 inactive_no_flow_7_9_0_0: flow_7_9_0_0 - 1000 edge_7_9_0_0 <= 0
 inactive_no_flow_7_10_0_0: flow_7_10_0_0 - 1000 edge_7_10_0_0 <= 0
 inactive_no_flow_7_12_0_0: flow_7_12_0_0 - 1000 edge_7_12_0_0 <= 0
 inactive_no_flow_7_13_0_0: flow_7_13_0_0 - 1000 edge_7_13_0_0 <= 0
 inactive_no_flow_7_14_0_0: flow_7_14_0_0 - 1000 edge_7_14_0_0 <= 0
 inactive_no_flow_7_15_0_0: flow_7_15_0_0 - 1000 edge_7_15_0_0 <= 0
 inactive_no_flow_7_16_0_0: flow_7_16_0_0 - 1000 edge_7_16_0_0 <= 0
 inactive_no_flow_8_1_0_0: flow_8_1_0_0 - 1000 edge_8_1_0_0 <= 0
 inactive_no_flow_8_2_0_0: flow_8_2_0_0 - 1000 edge_8_2_0_0 <= 0
 inactive_no_flow_8_3_0_0: flow_8_3_0_0 - 1000 edge_8_3_0_0 <= 0
 inactive_no_flow_8_4_0_0: flow_8_4_0_0 - 1000 edge_8_4_0_0 <= 0
 inactive_no_flow_8_5_0_0: flow_8_5_0_0 - 1000 edge_8_5_0_0 <= 0
 inactive_no_flow_8_6_0_0: flow_8_6_0_0 - 1000 edge_8_6_0_0 <= 0
 inactive_no_flow_8_7_0_0: flow_8_7_0_0 - 1000 edge_8_7_0_0 <= 0
 inactive_no_flow_8_9_0_0: flow_8_9_0_0 - 1000 edge_8_9_0_0 <= 0
 inactive_no_flow_8_10_0_0: flow_8_10_0_0 - 1000 edge_8_10_0_0 <= 0
 inactive_no_flow_8_12_0_0: flow_8_12_0_0 - 1000 edge_8_12_0_0 <= 0
 inactive_no_flow_8_13_0_0: flow_8_13_0_0 - 1000 edge_8_13_0_0 <= 0
 inactive_no_flow_8_14_0_0: flow_8_14_0_0 - 1000 edge_8_14_0_0 <= 0
 inactive_no_flow_8_15_0_0: flow_8_15_0_0 - 1000 edge_8_15_0_0 <= 0
 inactive_no_flow_8_16_0_0: flow_8_16_0_0 - 1000 edge_8_16_0_0 <= 0
 inactive_no_flow_9_10_0_0: flow_9_10_0_0 - 1000 edge_9_10_0_0 <= 0
 inactive_no_flow_9_13_0_0: flow_9_13_0_0 - 1000 edge_9_13_0_0 <= 0
 inactive_no_flow_9_14_0_0: flow_9_14_0_0 - 1000 edge_9_14_0_0 <= 0
 inactive_no_flow_9_15_0_0: flow_9_15_0_0 - 1000 edge_9_15_0_0 <= 0
 inactive_no_flow_10_1_0_0: flow_10_1_0_0 - 1000 edge_10_1_0_0 <= 0
 inactive_no_flow_10_2_0_0: flow_10_2_0_0 - 1000 edge_10_2_0_0 <= 0
 inactive_no_flow_10_3_0_0: flow_10_3_0_0 - 1000 edge_10_3_0_0 <= 0
 inactive_no_flow_10_4_0_0: flow_10_4_0_0 - 1000 edge_10_4_0_0 <= 0
 inactive_no_flow_10_5_0_0: flow_10_5_0_0 - 1000 edge_10_5_0_0 <= 0
 inactive_no_flow_10_6_0_0: flow_10_6_0_0 - 1000 edge_10_6_0_0 <= 0
 inactive_no_flow_10_7_0_0: flow_10_7_0_0 - 1000 edge_10_7_0_0 <= 0
 inactive_no_flow_10_8_0_0: flow_10_8_0_0 - 1000 edge_10_8_0_0 <= 0
 inactive_no_flow_10_9_0_0: flow_10_9_0_0 - 1000 edge_10_9_0_0 <= 0
 inactive_no_flow_10_12_0_0: flow_10_12_0_0 - 1000 edge_10_12_0_0 <= 0
 inactive_no_flow_10_13_0_0: flow_10_13_0_0 - 1000 edge_10_13_0_0 <= 0
 inactive_no_flow_10_14_0_0: flow_10_14_0_0 - 1000 edge_10_14_0_0 <= 0
 inactive_no_flow_10_15_0_0: flow_10_15_0_0 - 1000 edge_10_15_0_0 <= 0
 inactive_no_flow_10_16_0_0: flow_10_16_0_0 - 1000 edge_10_16_0_0 <= 0
 inactive_no_flow_12_13_0_0: flow_12_13_0_0 - 1000 edge_12_13_0_0 <= 0
 inactive_no_flow_12_14_0_0: flow_12_14_0_0 - 1000 edge_12_14_0_0 <= 0
 inactive_no_flow_12_15_0_0: flow_12_15_0_0 - 1000 edge_12_15_0_0 <= 0
 inactive_no_flow_13_6_0_0: flow_13_6_0_0 - 1000 edge_13_6_0_0 <= 0
 inactive_no_flow_13_7_0_0: flow_13_7_0_0 - 1000 edge_13_7_0_0 <= 0
 inactive_no_flow_13_8_0_0: flow_13_8_0_0 - 1000 edge_13_8_0_0 <= 0
 inactive_no_flow_13_9_0_0: flow_13_9_0_0 - 1000 edge_13_9_0_0 <= 0
 inactive_no_flow_13_10_0_0: flow_13_10_0_0 - 1000 edge_13_10_0_0 <= 0
 inactive_no_flow_13_12_0_0: flow_13_12_0_0 - 1000 edge_13_12_0_0 <= 0
 inactive_no_flow_13_14_0_0: flow_13_14_0_0 - 1000 edge_13_14_0_0 <= 0
 inactive_no_flow_13_15_0_0: flow_13_15_0_0 - 1000 edge_13_15_0_0 <= 0
 inactive_no_flow_13_16_0_0: flow_13_16_0_0 - 1000 edge_13_16_0_0 <= 0
 inactive_no_flow_14_1_0_0: flow_14_1_0_0 - 1000 edge_14_1_0_0 <= 0
 inactive_no_flow_14_4_0_0: flow_14_4_0_0 - 1000 edge_14_4_0_0 <= 0
 inactive_no_flow_14_7_0_0: flow_14_7_0_0 - 1000 edge_14_7_0_0 <= 0
 inactive_no_flow_14_8_0_0: flow_14_8_0_0 - 1000 edge_14_8_0_0 <= 0
 inactive_no_flow_14_9_0_0: flow_14_9_0_0 - 1000 edge_14_9_0_0 <= 0
 inactive_no_flow_14_10_0_0: flow_14_10_0_0 - 1000 edge_14_10_0_0 <= 0
 inactive_no_flow_14_12_0_0: flow_14_12_0_0 - 1000 edge_14_12_0_0 <= 0
 inactive_no_flow_14_13_0_0: flow_14_13_0_0 - 1000 edge_14_13_0_0 <= 0
 inactive_no_flow_14_15_0_0: flow_14_15_0_0 - 1000 edge_14_15_0_0 <= 0
 inactive_no_flow_14_16_0_0: flow_14_16_0_0 - 1000 edge_14_16_0_0 <= 0
 inactive_no_flow_15_1_0_0: flow_15_1_0_0 - 1000 edge_15_1_0_0 <= 0
 inactive_no_flow_15_2_0_0: flow_15_2_0_0 - 1000 edge_15_2_0_0 <= 0
 inactive_no_flow_15_3_0_0: flow_15_3_0_0 - 1000 edge_15_3_0_0 <= 0
 inactive_no_flow_15_4_0_0: flow_15_4_0_0 - 1000 edge_15_4_0_0 <= 0
 inactive_no_flow_15_5_0_0: flow_15_5_0_0 - 1000 edge_15_5_0_0 <= 0
 inactive_no_flow_15_6_0_0: flow_15_6_0_0 - 1000 edge_15_6_0_0 <= 0
 inactive_no_flow_15_7_0_0: flow_15_7_0_0 - 1000 edge_15_7_0_0 <= 0
 inactive_no_flow_15_8_0_0: flow_15_8_0_0 - 1000 edge_15_8_0_0 <= 0
 inactive_no_flow_15_9_0_0: flow_15_9_0_0 - 1000 edge_15_9_0_0 <= 0
 inactive_no_flow_15_10_0_0: flow_15_10_0_0 - 1000 edge_15_10_0_0 <= 0
 inactive_no_flow_15_12_0_0: flow_15_12_0_0 - 1000 edge_15_12_0_0 <= 0
 inactive_no_flow_15_13_0_0: flow_15_13_0_0 - 1000 edge_15_13_0_0 <= 0
 inactive_no_flow_15_14_0_0: flow_15_14_0_0 - 1000 edge_15_14_0_0 <= 0
 inactive_no_flow_15_16_0_0: flow_15_16_0_0 - 1000 edge_15_16_0_0 <= 0
Bounds
Binaries
 edge_0_1_0_0 edge_0_3_0_0 edge_0_4_0_0 edge_0_8_0_0 edge_0_15_0_0
 edge_1_2_0_0 edge_1_3_0_0 edge_1_4_0_0 edge_1_5_0_0 edge_1_8_0_0
 edge_1_10_0_0 edge_2_1_0_0 edge_2_5_0_0 edge_3_1_0_0 edge_3_2_0_0
 edge_3_4_0_0 edge_3_5_0_0 edge_3_6_0_0 edge_3_7_0_0 edge_3_8_0_0
 edge_3_10_0_0 edge_3_12_0_0 edge_3_13_0_0 edge_3_14_0_0 edge_3_15_0_0
 edge_3_16_0_0 edge_4_1_0_0 edge_4_2_0_0 edge_4_3_0_0 edge_4_5_0_0
 edge_4_6_0_0 edge_4_7_0_0 edge_4_8_0_0 edge_4_9_0_0 edge_4_10_0_0
 edge_4_12_0_0 edge_4_13_0_0 edge_4_14_0_0 edge_4_15_0_0 edge_4_16_0_0
 edge_5_3_0_0 edge_6_1_0_0 edge_6_3_0_0 edge_6_4_0_0 edge_6_5_0_0
 edge_6_7_0_0 edge_6_9_0_0 edge_6_10_0_0 edge_6_12_0_0 edge_6_13_0_0
 edge_6_14_0_0 edge_6_15_0_0 edge_6_16_0_0 edge_7_1_0_0 edge_7_2_0_0
 edge_7_3_0_0 edge_7_4_0_0 edge_7_5_0_0 edge_7_6_0_0 edge_7_8_0_0
 edge_7_9_0_0 edge_7_10_0_0 edge_7_12_0_0 edge_7_13_0_0 edge_7_14_0_0
 edge_7_15_0_0 edge_7_16_0_0 edge_8_1_0_0 edge_8_2_0_0 edge_8_3_0_0
 edge_8_4_0_0 edge_8_5_0_0 edge_8_6_0_0 edge_8_7_0_0 edge_8_9_0_0
 edge_8_10_0_0 edge_8_12_0_0 edge_8_13_0_0 edge_8_14_0_0 edge_8_15_0_0
 edge_8_16_0_0 edge_9_10_0_0 edge_9_13_0_0 edge_9_14_0_0 edge_9_15_0_0
 edge_10_1_0_0 edge_10_2_0_0 edge_10_3_0_0 edge_10_4_0_0 edge_10_5_0_0
 edge_10_6_0_0 edge_10_7_0_0 edge_10_8_0_0 edge_10_9_0_0 edge_10_12_0_0
 edge_10_13_0_0 edge_10_14_0_0 edge_10_15_0_0 edge_10_16_0_0 edge_12_13_0_0
 edge_12_14_0_0 edge_12_15_0_0 edge_13_6_0_0 edge_13_7_0_0 edge_13_8_0_0
 edge_13_9_0_0 edge_13_10_0_0 edge_13_12_0_0 edge_13_14_0_0 edge_13_15_0_0
 edge_13_16_0_0 edge_14_1_0_0 edge_14_4_0_0 edge_14_7_0_0 edge_14_8_0_0
 edge_14_9_0_0 edge_14_10_0_0 edge_14_12_0_0 edge_14_13_0_0 edge_14_15_0_0
 edge_14_16_0_0 edge_15_1_0_0 edge_15_2_0_0 edge_15_3_0_0 edge_15_4_0_0
 edge_15_5_0_0 edge_15_6_0_0 edge_15_7_0_0 edge_15_8_0_0 edge_15_9_0_0
 edge_15_10_0_0 edge_15_12_0_0 edge_15_13_0_0 edge_15_14_0_0 edge_15_16_0_0
End
